Instance Name : r202
Date : 2022-07-18
Solution
Route 1 : 52 83 45 82 48 47 36 63 64 11 19 62 88 7 18 6 99 97 43 74 2 13 58
Route 2 : 27 69 39 67 23 72 73 21 40 53 87 57 41 22 75 56 4 54 55 25 24 80 12 26
Route 3 : 28 33 65 34 29 3 76 50 30 71 78 79 81 9 51 90 10 20 32 66 35 68 77 1 70 31
Route 4 : 94 95 92 37 42 15 14 91 61 16 44 38 86 84 8 49 46 17 60 5 93 85 100 98 59 96 89
